(set-logic QF_LRA)
(declare-fun T1 () Real )
(declare-fun T2 () Real )
(declare-fun T3 () Real )
(declare-fun T4 () Real )
(declare-fun T5 () Real )
(declare-fun T6 () Real )
(declare-fun T7 () Real )
(declare-fun T8 () Real )
(declare-fun Z () Real )
(declare-fun k () Real )
(assert (let
(( $goal (>= Z k) ))
(let
((
$phi ( and 
(or ( <= ( + T1 64 ) T2 ) ( <= ( + T2 56 ) T1 ) )
(or ( <= ( + T1 163 )  ( + T2 56 ) ) ( <= ( + T2 143 )( + T1 64 ) ) )
(or ( <= ( + T1 252 )  ( + T2 143 ) ) ( <= ( + T2 213 )( + T1 163 ) ) )
(or ( <= ( + T1 291 )  ( + T2 213 ) ) ( <= ( + T2 268 )( + T1 252 ) ) )
(or ( <= ( + T1 315 )  ( + T2 268 ) ) ( <= ( + T2 289 )( + T1 291 ) ) )
(or ( <= ( + T1 406 )  ( + T2 289 ) ) ( <= ( + T2 346 )( + T1 315 ) ) )
(or ( <= ( + T1 413 )  ( + T2 346 ) ) ( <= ( + T2 415 )( + T1 406 ) ) )
(or ( <= ( + T1 430 )  ( + T2 415 ) ) ( <= ( + T2 443 )( + T1 413 ) ) )
(or ( <= ( + T1 472 )  ( + T2 443 ) ) ( <= ( + T2 495 )( + T1 430 ) ) )
(or ( <= ( + T1 485 )  ( + T2 495 ) ) ( <= ( + T2 520 )( + T1 472 ) ) )
(or ( <= ( + T1 64 ) T3 ) ( <= ( + T3 24 ) T1 ) )
(or ( <= ( + T1 163 )  ( + T3 24 ) ) ( <= ( + T3 91 )( + T1 64 ) ) )
(or ( <= ( + T1 252 )  ( + T3 91 ) ) ( <= ( + T3 177 )( + T1 163 ) ) )
(or ( <= ( + T1 291 )  ( + T3 177 ) ) ( <= ( + T3 218 )( + T1 252 ) ) )
(or ( <= ( + T1 315 )  ( + T3 218 ) ) ( <= ( + T3 296 )( + T1 291 ) ) )
(or ( <= ( + T1 406 )  ( + T3 296 ) ) ( <= ( + T3 370 )( + T1 315 ) ) )
(or ( <= ( + T1 413 )  ( + T3 370 ) ) ( <= ( + T3 390 )( + T1 406 ) ) )
(or ( <= ( + T1 430 )  ( + T3 390 ) ) ( <= ( + T3 461 )( + T1 413 ) ) )
(or ( <= ( + T1 472 )  ( + T3 461 ) ) ( <= ( + T3 505 )( + T1 430 ) ) )
(or ( <= ( + T1 485 )  ( + T3 505 ) ) ( <= ( + T3 535 )( + T1 472 ) ) )
(or ( <= ( + T1 64 ) T4 ) ( <= ( + T4 78 ) T1 ) )
(or ( <= ( + T1 163 )  ( + T4 78 ) ) ( <= ( + T4 137 )( + T1 64 ) ) )
(or ( <= ( + T1 252 )  ( + T4 137 ) ) ( <= ( + T4 165 )( + T1 163 ) ) )
(or ( <= ( + T1 291 )  ( + T4 165 ) ) ( <= ( + T4 183 )( + T1 252 ) ) )
(or ( <= ( + T1 315 )  ( + T4 183 ) ) ( <= ( + T4 281 )( + T1 291 ) ) )
(or ( <= ( + T1 406 )  ( + T4 281 ) ) ( <= ( + T4 284 )( + T1 315 ) ) )
(or ( <= ( + T1 413 )  ( + T4 284 ) ) ( <= ( + T4 292 )( + T1 406 ) ) )
(or ( <= ( + T1 430 )  ( + T4 292 ) ) ( <= ( + T4 348 )( + T1 413 ) ) )
(or ( <= ( + T1 472 )  ( + T4 348 ) ) ( <= ( + T4 367 )( + T1 430 ) ) )
(or ( <= ( + T1 485 )  ( + T4 367 ) ) ( <= ( + T4 417 )( + T1 472 ) ) )
(or ( <= ( + T1 64 ) T5 ) ( <= ( + T5 20 ) T1 ) )
(or ( <= ( + T1 163 )  ( + T5 20 ) ) ( <= ( + T5 94 )( + T1 64 ) ) )
(or ( <= ( + T1 252 )  ( + T5 94 ) ) ( <= ( + T5 182 )( + T1 163 ) ) )
(or ( <= ( + T1 291 )  ( + T5 182 ) ) ( <= ( + T5 271 )( + T1 252 ) ) )
(or ( <= ( + T1 315 )  ( + T5 271 ) ) ( <= ( + T5 352 )( + T1 291 ) ) )
(or ( <= ( + T1 406 )  ( + T5 352 ) ) ( <= ( + T5 361 )( + T1 315 ) ) )
(or ( <= ( + T1 413 )  ( + T5 361 ) ) ( <= ( + T5 407 )( + T1 406 ) ) )
(or ( <= ( + T1 430 )  ( + T5 407 ) ) ( <= ( + T5 456 )( + T1 413 ) ) )
(or ( <= ( + T1 472 )  ( + T5 456 ) ) ( <= ( + T5 492 )( + T1 430 ) ) )
(or ( <= ( + T1 485 )  ( + T5 492 ) ) ( <= ( + T5 589 )( + T1 472 ) ) )
(or ( <= ( + T1 64 ) T6 ) ( <= ( + T6 25 ) T1 ) )
(or ( <= ( + T1 163 )  ( + T6 25 ) ) ( <= ( + T6 36 )( + T1 64 ) ) )
(or ( <= ( + T1 252 )  ( + T6 36 ) ) ( <= ( + T6 52 )( + T1 163 ) ) )
(or ( <= ( + T1 291 )  ( + T6 52 ) ) ( <= ( + T6 62 )( + T1 252 ) ) )
(or ( <= ( + T1 315 )  ( + T6 62 ) ) ( <= ( + T6 65 )( + T1 291 ) ) )
(or ( <= ( + T1 406 )  ( + T6 65 ) ) ( <= ( + T6 158 )( + T1 315 ) ) )
(or ( <= ( + T1 413 )  ( + T6 158 ) ) ( <= ( + T6 193 )( + T1 406 ) ) )
(or ( <= ( + T1 430 )  ( + T6 193 ) ) ( <= ( + T6 267 )( + T1 413 ) ) )
(or ( <= ( + T1 472 )  ( + T6 267 ) ) ( <= ( + T6 282 )( + T1 430 ) ) )
(or ( <= ( + T1 485 )  ( + T6 282 ) ) ( <= ( + T6 312 )( + T1 472 ) ) )
(or ( <= ( + T1 64 ) T7 ) ( <= ( + T7 56 ) T1 ) )
(or ( <= ( + T1 163 )  ( + T7 56 ) ) ( <= ( + T7 148 )( + T1 64 ) ) )
(or ( <= ( + T1 252 )  ( + T7 148 ) ) ( <= ( + T7 237 )( + T1 163 ) ) )
(or ( <= ( + T1 291 )  ( + T7 237 ) ) ( <= ( + T7 320 )( + T1 252 ) ) )
(or ( <= ( + T1 315 )  ( + T7 320 ) ) ( <= ( + T7 330 )( + T1 291 ) ) )
(or ( <= ( + T1 406 )  ( + T7 330 ) ) ( <= ( + T7 368 )( + T1 315 ) ) )
(or ( <= ( + T1 413 )  ( + T7 368 ) ) ( <= ( + T7 454 )( + T1 406 ) ) )
(or ( <= ( + T1 430 )  ( + T7 454 ) ) ( <= ( + T7 523 )( + T1 413 ) ) )
(or ( <= ( + T1 472 )  ( + T7 523 ) ) ( <= ( + T7 616 )( + T1 430 ) ) )
(or ( <= ( + T1 485 )  ( + T7 616 ) ) ( <= ( + T7 672 )( + T1 472 ) ) )
(or ( <= ( + T1 64 ) T8 ) ( <= ( + T8 18 ) T1 ) )
(or ( <= ( + T1 163 )  ( + T8 18 ) ) ( <= ( + T8 83 )( + T1 64 ) ) )
(or ( <= ( + T1 252 )  ( + T8 83 ) ) ( <= ( + T8 165 )( + T1 163 ) ) )
(or ( <= ( + T1 291 )  ( + T8 165 ) ) ( <= ( + T8 171 )( + T1 252 ) ) )
(or ( <= ( + T1 315 )  ( + T8 171 ) ) ( <= ( + T8 224 )( + T1 291 ) ) )
(or ( <= ( + T1 406 )  ( + T8 224 ) ) ( <= ( + T8 286 )( + T1 315 ) ) )
(or ( <= ( + T1 413 )  ( + T8 286 ) ) ( <= ( + T8 352 )( + T1 406 ) ) )
(or ( <= ( + T1 430 )  ( + T8 352 ) ) ( <= ( + T8 402 )( + T1 413 ) ) )
(or ( <= ( + T1 472 )  ( + T8 402 ) ) ( <= ( + T8 464 )( + T1 430 ) ) )
(or ( <= ( + T1 485 )  ( + T8 464 ) ) ( <= ( + T8 517 )( + T1 472 ) ) )
(or ( <= ( + T2 56 ) T3 ) ( <= ( + T3 24 ) T2 ) )
(or ( <= ( + T2 143 )  ( + T3 24 ) ) ( <= ( + T3 91 )( + T2 56 ) ) )
(or ( <= ( + T2 213 )  ( + T3 91 ) ) ( <= ( + T3 177 )( + T2 143 ) ) )
(or ( <= ( + T2 268 )  ( + T3 177 ) ) ( <= ( + T3 218 )( + T2 213 ) ) )
(or ( <= ( + T2 289 )  ( + T3 218 ) ) ( <= ( + T3 296 )( + T2 268 ) ) )
(or ( <= ( + T2 346 )  ( + T3 296 ) ) ( <= ( + T3 370 )( + T2 289 ) ) )
(or ( <= ( + T2 415 )  ( + T3 370 ) ) ( <= ( + T3 390 )( + T2 346 ) ) )
(or ( <= ( + T2 443 )  ( + T3 390 ) ) ( <= ( + T3 461 )( + T2 415 ) ) )
(or ( <= ( + T2 495 )  ( + T3 461 ) ) ( <= ( + T3 505 )( + T2 443 ) ) )
(or ( <= ( + T2 520 )  ( + T3 505 ) ) ( <= ( + T3 535 )( + T2 495 ) ) )
(or ( <= ( + T2 56 ) T4 ) ( <= ( + T4 78 ) T2 ) )
(or ( <= ( + T2 143 )  ( + T4 78 ) ) ( <= ( + T4 137 )( + T2 56 ) ) )
(or ( <= ( + T2 213 )  ( + T4 137 ) ) ( <= ( + T4 165 )( + T2 143 ) ) )
(or ( <= ( + T2 268 )  ( + T4 165 ) ) ( <= ( + T4 183 )( + T2 213 ) ) )
(or ( <= ( + T2 289 )  ( + T4 183 ) ) ( <= ( + T4 281 )( + T2 268 ) ) )
(or ( <= ( + T2 346 )  ( + T4 281 ) ) ( <= ( + T4 284 )( + T2 289 ) ) )
(or ( <= ( + T2 415 )  ( + T4 284 ) ) ( <= ( + T4 292 )( + T2 346 ) ) )
(or ( <= ( + T2 443 )  ( + T4 292 ) ) ( <= ( + T4 348 )( + T2 415 ) ) )
(or ( <= ( + T2 495 )  ( + T4 348 ) ) ( <= ( + T4 367 )( + T2 443 ) ) )
(or ( <= ( + T2 520 )  ( + T4 367 ) ) ( <= ( + T4 417 )( + T2 495 ) ) )
(or ( <= ( + T2 56 ) T5 ) ( <= ( + T5 20 ) T2 ) )
(or ( <= ( + T2 143 )  ( + T5 20 ) ) ( <= ( + T5 94 )( + T2 56 ) ) )
(or ( <= ( + T2 213 )  ( + T5 94 ) ) ( <= ( + T5 182 )( + T2 143 ) ) )
(or ( <= ( + T2 268 )  ( + T5 182 ) ) ( <= ( + T5 271 )( + T2 213 ) ) )
(or ( <= ( + T2 289 )  ( + T5 271 ) ) ( <= ( + T5 352 )( + T2 268 ) ) )
(or ( <= ( + T2 346 )  ( + T5 352 ) ) ( <= ( + T5 361 )( + T2 289 ) ) )
(or ( <= ( + T2 415 )  ( + T5 361 ) ) ( <= ( + T5 407 )( + T2 346 ) ) )
(or ( <= ( + T2 443 )  ( + T5 407 ) ) ( <= ( + T5 456 )( + T2 415 ) ) )
(or ( <= ( + T2 495 )  ( + T5 456 ) ) ( <= ( + T5 492 )( + T2 443 ) ) )
(or ( <= ( + T2 520 )  ( + T5 492 ) ) ( <= ( + T5 589 )( + T2 495 ) ) )
(or ( <= ( + T2 56 ) T6 ) ( <= ( + T6 25 ) T2 ) )
(or ( <= ( + T2 143 )  ( + T6 25 ) ) ( <= ( + T6 36 )( + T2 56 ) ) )
(or ( <= ( + T2 213 )  ( + T6 36 ) ) ( <= ( + T6 52 )( + T2 143 ) ) )
(or ( <= ( + T2 268 )  ( + T6 52 ) ) ( <= ( + T6 62 )( + T2 213 ) ) )
(or ( <= ( + T2 289 )  ( + T6 62 ) ) ( <= ( + T6 65 )( + T2 268 ) ) )
(or ( <= ( + T2 346 )  ( + T6 65 ) ) ( <= ( + T6 158 )( + T2 289 ) ) )
(or ( <= ( + T2 415 )  ( + T6 158 ) ) ( <= ( + T6 193 )( + T2 346 ) ) )
(or ( <= ( + T2 443 )  ( + T6 193 ) ) ( <= ( + T6 267 )( + T2 415 ) ) )
(or ( <= ( + T2 495 )  ( + T6 267 ) ) ( <= ( + T6 282 )( + T2 443 ) ) )
(or ( <= ( + T2 520 )  ( + T6 282 ) ) ( <= ( + T6 312 )( + T2 495 ) ) )
(or ( <= ( + T2 56 ) T7 ) ( <= ( + T7 56 ) T2 ) )
(or ( <= ( + T2 143 )  ( + T7 56 ) ) ( <= ( + T7 148 )( + T2 56 ) ) )
(or ( <= ( + T2 213 )  ( + T7 148 ) ) ( <= ( + T7 237 )( + T2 143 ) ) )
(or ( <= ( + T2 268 )  ( + T7 237 ) ) ( <= ( + T7 320 )( + T2 213 ) ) )
(or ( <= ( + T2 289 )  ( + T7 320 ) ) ( <= ( + T7 330 )( + T2 268 ) ) )
(or ( <= ( + T2 346 )  ( + T7 330 ) ) ( <= ( + T7 368 )( + T2 289 ) ) )
(or ( <= ( + T2 415 )  ( + T7 368 ) ) ( <= ( + T7 454 )( + T2 346 ) ) )
(or ( <= ( + T2 443 )  ( + T7 454 ) ) ( <= ( + T7 523 )( + T2 415 ) ) )
(or ( <= ( + T2 495 )  ( + T7 523 ) ) ( <= ( + T7 616 )( + T2 443 ) ) )
(or ( <= ( + T2 520 )  ( + T7 616 ) ) ( <= ( + T7 672 )( + T2 495 ) ) )
(or ( <= ( + T2 56 ) T8 ) ( <= ( + T8 18 ) T2 ) )
(or ( <= ( + T2 143 )  ( + T8 18 ) ) ( <= ( + T8 83 )( + T2 56 ) ) )
(or ( <= ( + T2 213 )  ( + T8 83 ) ) ( <= ( + T8 165 )( + T2 143 ) ) )
(or ( <= ( + T2 268 )  ( + T8 165 ) ) ( <= ( + T8 171 )( + T2 213 ) ) )
(or ( <= ( + T2 289 )  ( + T8 171 ) ) ( <= ( + T8 224 )( + T2 268 ) ) )
(or ( <= ( + T2 346 )  ( + T8 224 ) ) ( <= ( + T8 286 )( + T2 289 ) ) )
(or ( <= ( + T2 415 )  ( + T8 286 ) ) ( <= ( + T8 352 )( + T2 346 ) ) )
(or ( <= ( + T2 443 )  ( + T8 352 ) ) ( <= ( + T8 402 )( + T2 415 ) ) )
(or ( <= ( + T2 495 )  ( + T8 402 ) ) ( <= ( + T8 464 )( + T2 443 ) ) )
(or ( <= ( + T2 520 )  ( + T8 464 ) ) ( <= ( + T8 517 )( + T2 495 ) ) )
(or ( <= ( + T3 24 ) T4 ) ( <= ( + T4 78 ) T3 ) )
(or ( <= ( + T3 91 )  ( + T4 78 ) ) ( <= ( + T4 137 )( + T3 24 ) ) )
(or ( <= ( + T3 177 )  ( + T4 137 ) ) ( <= ( + T4 165 )( + T3 91 ) ) )
(or ( <= ( + T3 218 )  ( + T4 165 ) ) ( <= ( + T4 183 )( + T3 177 ) ) )
(or ( <= ( + T3 296 )  ( + T4 183 ) ) ( <= ( + T4 281 )( + T3 218 ) ) )
(or ( <= ( + T3 370 )  ( + T4 281 ) ) ( <= ( + T4 284 )( + T3 296 ) ) )
(or ( <= ( + T3 390 )  ( + T4 284 ) ) ( <= ( + T4 292 )( + T3 370 ) ) )
(or ( <= ( + T3 461 )  ( + T4 292 ) ) ( <= ( + T4 348 )( + T3 390 ) ) )
(or ( <= ( + T3 505 )  ( + T4 348 ) ) ( <= ( + T4 367 )( + T3 461 ) ) )
(or ( <= ( + T3 535 )  ( + T4 367 ) ) ( <= ( + T4 417 )( + T3 505 ) ) )
(or ( <= ( + T3 24 ) T5 ) ( <= ( + T5 20 ) T3 ) )
(or ( <= ( + T3 91 )  ( + T5 20 ) ) ( <= ( + T5 94 )( + T3 24 ) ) )
(or ( <= ( + T3 177 )  ( + T5 94 ) ) ( <= ( + T5 182 )( + T3 91 ) ) )
(or ( <= ( + T3 218 )  ( + T5 182 ) ) ( <= ( + T5 271 )( + T3 177 ) ) )
(or ( <= ( + T3 296 )  ( + T5 271 ) ) ( <= ( + T5 352 )( + T3 218 ) ) )
(or ( <= ( + T3 370 )  ( + T5 352 ) ) ( <= ( + T5 361 )( + T3 296 ) ) )
(or ( <= ( + T3 390 )  ( + T5 361 ) ) ( <= ( + T5 407 )( + T3 370 ) ) )
(or ( <= ( + T3 461 )  ( + T5 407 ) ) ( <= ( + T5 456 )( + T3 390 ) ) )
(or ( <= ( + T3 505 )  ( + T5 456 ) ) ( <= ( + T5 492 )( + T3 461 ) ) )
(or ( <= ( + T3 535 )  ( + T5 492 ) ) ( <= ( + T5 589 )( + T3 505 ) ) )
(or ( <= ( + T3 24 ) T6 ) ( <= ( + T6 25 ) T3 ) )
(or ( <= ( + T3 91 )  ( + T6 25 ) ) ( <= ( + T6 36 )( + T3 24 ) ) )
(or ( <= ( + T3 177 )  ( + T6 36 ) ) ( <= ( + T6 52 )( + T3 91 ) ) )
(or ( <= ( + T3 218 )  ( + T6 52 ) ) ( <= ( + T6 62 )( + T3 177 ) ) )
(or ( <= ( + T3 296 )  ( + T6 62 ) ) ( <= ( + T6 65 )( + T3 218 ) ) )
(or ( <= ( + T3 370 )  ( + T6 65 ) ) ( <= ( + T6 158 )( + T3 296 ) ) )
(or ( <= ( + T3 390 )  ( + T6 158 ) ) ( <= ( + T6 193 )( + T3 370 ) ) )
(or ( <= ( + T3 461 )  ( + T6 193 ) ) ( <= ( + T6 267 )( + T3 390 ) ) )
(or ( <= ( + T3 505 )  ( + T6 267 ) ) ( <= ( + T6 282 )( + T3 461 ) ) )
(or ( <= ( + T3 535 )  ( + T6 282 ) ) ( <= ( + T6 312 )( + T3 505 ) ) )
(or ( <= ( + T3 24 ) T7 ) ( <= ( + T7 56 ) T3 ) )
(or ( <= ( + T3 91 )  ( + T7 56 ) ) ( <= ( + T7 148 )( + T3 24 ) ) )
(or ( <= ( + T3 177 )  ( + T7 148 ) ) ( <= ( + T7 237 )( + T3 91 ) ) )
(or ( <= ( + T3 218 )  ( + T7 237 ) ) ( <= ( + T7 320 )( + T3 177 ) ) )
(or ( <= ( + T3 296 )  ( + T7 320 ) ) ( <= ( + T7 330 )( + T3 218 ) ) )
(or ( <= ( + T3 370 )  ( + T7 330 ) ) ( <= ( + T7 368 )( + T3 296 ) ) )
(or ( <= ( + T3 390 )  ( + T7 368 ) ) ( <= ( + T7 454 )( + T3 370 ) ) )
(or ( <= ( + T3 461 )  ( + T7 454 ) ) ( <= ( + T7 523 )( + T3 390 ) ) )
(or ( <= ( + T3 505 )  ( + T7 523 ) ) ( <= ( + T7 616 )( + T3 461 ) ) )
(or ( <= ( + T3 535 )  ( + T7 616 ) ) ( <= ( + T7 672 )( + T3 505 ) ) )
(or ( <= ( + T3 24 ) T8 ) ( <= ( + T8 18 ) T3 ) )
(or ( <= ( + T3 91 )  ( + T8 18 ) ) ( <= ( + T8 83 )( + T3 24 ) ) )
(or ( <= ( + T3 177 )  ( + T8 83 ) ) ( <= ( + T8 165 )( + T3 91 ) ) )
(or ( <= ( + T3 218 )  ( + T8 165 ) ) ( <= ( + T8 171 )( + T3 177 ) ) )
(or ( <= ( + T3 296 )  ( + T8 171 ) ) ( <= ( + T8 224 )( + T3 218 ) ) )
(or ( <= ( + T3 370 )  ( + T8 224 ) ) ( <= ( + T8 286 )( + T3 296 ) ) )
(or ( <= ( + T3 390 )  ( + T8 286 ) ) ( <= ( + T8 352 )( + T3 370 ) ) )
(or ( <= ( + T3 461 )  ( + T8 352 ) ) ( <= ( + T8 402 )( + T3 390 ) ) )
(or ( <= ( + T3 505 )  ( + T8 402 ) ) ( <= ( + T8 464 )( + T3 461 ) ) )
(or ( <= ( + T3 535 )  ( + T8 464 ) ) ( <= ( + T8 517 )( + T3 505 ) ) )
(or ( <= ( + T4 78 ) T5 ) ( <= ( + T5 20 ) T4 ) )
(or ( <= ( + T4 137 )  ( + T5 20 ) ) ( <= ( + T5 94 )( + T4 78 ) ) )
(or ( <= ( + T4 165 )  ( + T5 94 ) ) ( <= ( + T5 182 )( + T4 137 ) ) )
(or ( <= ( + T4 183 )  ( + T5 182 ) ) ( <= ( + T5 271 )( + T4 165 ) ) )
(or ( <= ( + T4 281 )  ( + T5 271 ) ) ( <= ( + T5 352 )( + T4 183 ) ) )
(or ( <= ( + T4 284 )  ( + T5 352 ) ) ( <= ( + T5 361 )( + T4 281 ) ) )
(or ( <= ( + T4 292 )  ( + T5 361 ) ) ( <= ( + T5 407 )( + T4 284 ) ) )
(or ( <= ( + T4 348 )  ( + T5 407 ) ) ( <= ( + T5 456 )( + T4 292 ) ) )
(or ( <= ( + T4 367 )  ( + T5 456 ) ) ( <= ( + T5 492 )( + T4 348 ) ) )
(or ( <= ( + T4 417 )  ( + T5 492 ) ) ( <= ( + T5 589 )( + T4 367 ) ) )
(or ( <= ( + T4 78 ) T6 ) ( <= ( + T6 25 ) T4 ) )
(or ( <= ( + T4 137 )  ( + T6 25 ) ) ( <= ( + T6 36 )( + T4 78 ) ) )
(or ( <= ( + T4 165 )  ( + T6 36 ) ) ( <= ( + T6 52 )( + T4 137 ) ) )
(or ( <= ( + T4 183 )  ( + T6 52 ) ) ( <= ( + T6 62 )( + T4 165 ) ) )
(or ( <= ( + T4 281 )  ( + T6 62 ) ) ( <= ( + T6 65 )( + T4 183 ) ) )
(or ( <= ( + T4 284 )  ( + T6 65 ) ) ( <= ( + T6 158 )( + T4 281 ) ) )
(or ( <= ( + T4 292 )  ( + T6 158 ) ) ( <= ( + T6 193 )( + T4 284 ) ) )
(or ( <= ( + T4 348 )  ( + T6 193 ) ) ( <= ( + T6 267 )( + T4 292 ) ) )
(or ( <= ( + T4 367 )  ( + T6 267 ) ) ( <= ( + T6 282 )( + T4 348 ) ) )
(or ( <= ( + T4 417 )  ( + T6 282 ) ) ( <= ( + T6 312 )( + T4 367 ) ) )
(or ( <= ( + T4 78 ) T7 ) ( <= ( + T7 56 ) T4 ) )
(or ( <= ( + T4 137 )  ( + T7 56 ) ) ( <= ( + T7 148 )( + T4 78 ) ) )
(or ( <= ( + T4 165 )  ( + T7 148 ) ) ( <= ( + T7 237 )( + T4 137 ) ) )
(or ( <= ( + T4 183 )  ( + T7 237 ) ) ( <= ( + T7 320 )( + T4 165 ) ) )
(or ( <= ( + T4 281 )  ( + T7 320 ) ) ( <= ( + T7 330 )( + T4 183 ) ) )
(or ( <= ( + T4 284 )  ( + T7 330 ) ) ( <= ( + T7 368 )( + T4 281 ) ) )
(or ( <= ( + T4 292 )  ( + T7 368 ) ) ( <= ( + T7 454 )( + T4 284 ) ) )
(or ( <= ( + T4 348 )  ( + T7 454 ) ) ( <= ( + T7 523 )( + T4 292 ) ) )
(or ( <= ( + T4 367 )  ( + T7 523 ) ) ( <= ( + T7 616 )( + T4 348 ) ) )
(or ( <= ( + T4 417 )  ( + T7 616 ) ) ( <= ( + T7 672 )( + T4 367 ) ) )
(or ( <= ( + T4 78 ) T8 ) ( <= ( + T8 18 ) T4 ) )
(or ( <= ( + T4 137 )  ( + T8 18 ) ) ( <= ( + T8 83 )( + T4 78 ) ) )
(or ( <= ( + T4 165 )  ( + T8 83 ) ) ( <= ( + T8 165 )( + T4 137 ) ) )
(or ( <= ( + T4 183 )  ( + T8 165 ) ) ( <= ( + T8 171 )( + T4 165 ) ) )
(or ( <= ( + T4 281 )  ( + T8 171 ) ) ( <= ( + T8 224 )( + T4 183 ) ) )
(or ( <= ( + T4 284 )  ( + T8 224 ) ) ( <= ( + T8 286 )( + T4 281 ) ) )
(or ( <= ( + T4 292 )  ( + T8 286 ) ) ( <= ( + T8 352 )( + T4 284 ) ) )
(or ( <= ( + T4 348 )  ( + T8 352 ) ) ( <= ( + T8 402 )( + T4 292 ) ) )
(or ( <= ( + T4 367 )  ( + T8 402 ) ) ( <= ( + T8 464 )( + T4 348 ) ) )
(or ( <= ( + T4 417 )  ( + T8 464 ) ) ( <= ( + T8 517 )( + T4 367 ) ) )
(or ( <= ( + T5 20 ) T6 ) ( <= ( + T6 25 ) T5 ) )
(or ( <= ( + T5 94 )  ( + T6 25 ) ) ( <= ( + T6 36 )( + T5 20 ) ) )
(or ( <= ( + T5 182 )  ( + T6 36 ) ) ( <= ( + T6 52 )( + T5 94 ) ) )
(or ( <= ( + T5 271 )  ( + T6 52 ) ) ( <= ( + T6 62 )( + T5 182 ) ) )
(or ( <= ( + T5 352 )  ( + T6 62 ) ) ( <= ( + T6 65 )( + T5 271 ) ) )
(or ( <= ( + T5 361 )  ( + T6 65 ) ) ( <= ( + T6 158 )( + T5 352 ) ) )
(or ( <= ( + T5 407 )  ( + T6 158 ) ) ( <= ( + T6 193 )( + T5 361 ) ) )
(or ( <= ( + T5 456 )  ( + T6 193 ) ) ( <= ( + T6 267 )( + T5 407 ) ) )
(or ( <= ( + T5 492 )  ( + T6 267 ) ) ( <= ( + T6 282 )( + T5 456 ) ) )
(or ( <= ( + T5 589 )  ( + T6 282 ) ) ( <= ( + T6 312 )( + T5 492 ) ) )
(or ( <= ( + T5 20 ) T7 ) ( <= ( + T7 56 ) T5 ) )
(or ( <= ( + T5 94 )  ( + T7 56 ) ) ( <= ( + T7 148 )( + T5 20 ) ) )
(or ( <= ( + T5 182 )  ( + T7 148 ) ) ( <= ( + T7 237 )( + T5 94 ) ) )
(or ( <= ( + T5 271 )  ( + T7 237 ) ) ( <= ( + T7 320 )( + T5 182 ) ) )
(or ( <= ( + T5 352 )  ( + T7 320 ) ) ( <= ( + T7 330 )( + T5 271 ) ) )
(or ( <= ( + T5 361 )  ( + T7 330 ) ) ( <= ( + T7 368 )( + T5 352 ) ) )
(or ( <= ( + T5 407 )  ( + T7 368 ) ) ( <= ( + T7 454 )( + T5 361 ) ) )
(or ( <= ( + T5 456 )  ( + T7 454 ) ) ( <= ( + T7 523 )( + T5 407 ) ) )
(or ( <= ( + T5 492 )  ( + T7 523 ) ) ( <= ( + T7 616 )( + T5 456 ) ) )
(or ( <= ( + T5 589 )  ( + T7 616 ) ) ( <= ( + T7 672 )( + T5 492 ) ) )
(or ( <= ( + T5 20 ) T8 ) ( <= ( + T8 18 ) T5 ) )
(or ( <= ( + T5 94 )  ( + T8 18 ) ) ( <= ( + T8 83 )( + T5 20 ) ) )
(or ( <= ( + T5 182 )  ( + T8 83 ) ) ( <= ( + T8 165 )( + T5 94 ) ) )
(or ( <= ( + T5 271 )  ( + T8 165 ) ) ( <= ( + T8 171 )( + T5 182 ) ) )
(or ( <= ( + T5 352 )  ( + T8 171 ) ) ( <= ( + T8 224 )( + T5 271 ) ) )
(or ( <= ( + T5 361 )  ( + T8 224 ) ) ( <= ( + T8 286 )( + T5 352 ) ) )
(or ( <= ( + T5 407 )  ( + T8 286 ) ) ( <= ( + T8 352 )( + T5 361 ) ) )
(or ( <= ( + T5 456 )  ( + T8 352 ) ) ( <= ( + T8 402 )( + T5 407 ) ) )
(or ( <= ( + T5 492 )  ( + T8 402 ) ) ( <= ( + T8 464 )( + T5 456 ) ) )
(or ( <= ( + T5 589 )  ( + T8 464 ) ) ( <= ( + T8 517 )( + T5 492 ) ) )
(or ( <= ( + T6 25 ) T7 ) ( <= ( + T7 56 ) T6 ) )
(or ( <= ( + T6 36 )  ( + T7 56 ) ) ( <= ( + T7 148 )( + T6 25 ) ) )
(or ( <= ( + T6 52 )  ( + T7 148 ) ) ( <= ( + T7 237 )( + T6 36 ) ) )
(or ( <= ( + T6 62 )  ( + T7 237 ) ) ( <= ( + T7 320 )( + T6 52 ) ) )
(or ( <= ( + T6 65 )  ( + T7 320 ) ) ( <= ( + T7 330 )( + T6 62 ) ) )
(or ( <= ( + T6 158 )  ( + T7 330 ) ) ( <= ( + T7 368 )( + T6 65 ) ) )
(or ( <= ( + T6 193 )  ( + T7 368 ) ) ( <= ( + T7 454 )( + T6 158 ) ) )
(or ( <= ( + T6 267 )  ( + T7 454 ) ) ( <= ( + T7 523 )( + T6 193 ) ) )
(or ( <= ( + T6 282 )  ( + T7 523 ) ) ( <= ( + T7 616 )( + T6 267 ) ) )
(or ( <= ( + T6 312 )  ( + T7 616 ) ) ( <= ( + T7 672 )( + T6 282 ) ) )
(or ( <= ( + T6 25 ) T8 ) ( <= ( + T8 18 ) T6 ) )
(or ( <= ( + T6 36 )  ( + T8 18 ) ) ( <= ( + T8 83 )( + T6 25 ) ) )
(or ( <= ( + T6 52 )  ( + T8 83 ) ) ( <= ( + T8 165 )( + T6 36 ) ) )
(or ( <= ( + T6 62 )  ( + T8 165 ) ) ( <= ( + T8 171 )( + T6 52 ) ) )
(or ( <= ( + T6 65 )  ( + T8 171 ) ) ( <= ( + T8 224 )( + T6 62 ) ) )
(or ( <= ( + T6 158 )  ( + T8 224 ) ) ( <= ( + T8 286 )( + T6 65 ) ) )
(or ( <= ( + T6 193 )  ( + T8 286 ) ) ( <= ( + T8 352 )( + T6 158 ) ) )
(or ( <= ( + T6 267 )  ( + T8 352 ) ) ( <= ( + T8 402 )( + T6 193 ) ) )
(or ( <= ( + T6 282 )  ( + T8 402 ) ) ( <= ( + T8 464 )( + T6 267 ) ) )
(or ( <= ( + T6 312 )  ( + T8 464 ) ) ( <= ( + T8 517 )( + T6 282 ) ) )
(or ( <= ( + T7 56 ) T8 ) ( <= ( + T8 18 ) T7 ) )
(or ( <= ( + T7 148 )  ( + T8 18 ) ) ( <= ( + T8 83 )( + T7 56 ) ) )
(or ( <= ( + T7 237 )  ( + T8 83 ) ) ( <= ( + T8 165 )( + T7 148 ) ) )
(or ( <= ( + T7 320 )  ( + T8 165 ) ) ( <= ( + T8 171 )( + T7 237 ) ) )
(or ( <= ( + T7 330 )  ( + T8 171 ) ) ( <= ( + T8 224 )( + T7 320 ) ) )
(or ( <= ( + T7 368 )  ( + T8 224 ) ) ( <= ( + T8 286 )( + T7 330 ) ) )
(or ( <= ( + T7 454 )  ( + T8 286 ) ) ( <= ( + T8 352 )( + T7 368 ) ) )
(or ( <= ( + T7 523 )  ( + T8 352 ) ) ( <= ( + T8 402 )( + T7 454 ) ) )
(or ( <= ( + T7 616 )  ( + T8 402 ) ) ( <= ( + T8 464 )( + T7 523 ) ) )
(or ( <= ( + T7 672 )  ( + T8 464 ) ) ( <= ( + T8 517 )( + T7 616 ) ) )
( <= ( + T1 485 ) Z)
( <= ( + T2 520 ) Z)
( <= ( + T3 535 ) Z)
( <= ( + T4 417 ) Z)
( <= ( + T5 589 ) Z)
( <= ( + T6 312 ) Z)
( <= ( + T7 672 ) Z)
( <= ( + T8 517 ) Z)
( >= T1 0 )
( >= T2 0 )
( >= T3 0 )
( >= T4 0 )
( >= T5 0 )
( >= T6 0 )
( >= T7 0 )
( >= T8 0 )
) )
)(=> $phi $goal))))